p cnf 114 778
1 2 3 4 5 6 7 8 0
9 10 11 12 13 14 15 16 0
17 18 19 20 21 22 23 24 0
25 26 27 28 29 30 31 32 0
33 34 35 36 37 38 39 40 0
41 42 43 44 45 46 47 48 0
49 50 51 52 53 54 55 56 0
57 58 59 60 61 62 63 64 0
65 66 67 68 69 70 71 0
72 73 74 75 76 77 78 0
79 80 81 82 83 84 85 0
86 87 88 89 90 91 92 0
93 94 95 96 97 98 99 0
100 101 102 103 104 105 106 0
107 108 109 110 111 112 113 0
-1 -9 0
-2 -10 0
-3 -11 0
-4 -12 0
-5 -13 0
-6 -14 0
-7 -15 0
-8 -16 0
-1 -17 0
-2 -18 0
-3 -19 0
-4 -20 0
-5 -21 0
-6 -22 0
-7 -23 0
-8 -24 0
-1 -25 0
-2 -26 0
-3 -27 0
-4 -28 0
-5 -29 0
-6 -30 0
-7 -31 0
-8 -32 0
-1 -33 0
-2 -34 0
-3 -35 0
-4 -36 0
-5 -37 0
-6 -38 0
-7 -39 0
-8 -40 0
-1 -41 0
-2 -42 0
-3 -43 0
-4 -44 0
-5 -45 0
-6 -46 0
-7 -47 0
-8 -48 0
-1 -49 0
-2 -50 0
-3 -51 0
-4 -52 0
-5 -53 0
-6 -54 0
-7 -55 0
-8 -56 0
-1 -57 0
-2 -58 0
-3 -59 0
-4 -60 0
-5 -61 0
-6 -62 0
-7 -63 0
-8 -64 0
-9 -17 0
-10 -18 0
-11 -19 0
-12 -20 0
-13 -21 0
-14 -22 0
-15 -23 0
-16 -24 0
-9 -25 0
-10 -26 0
-11 -27 0
-12 -28 0
-13 -29 0
-14 -30 0
-15 -31 0
-16 -32 0
-9 -33 0
-10 -34 0
-11 -35 0
-12 -36 0
-13 -37 0
-14 -38 0
-15 -39 0
-16 -40 0
-9 -41 0
-10 -42 0
-11 -43 0
-12 -44 0
-13 -45 0
-14 -46 0
-15 -47 0
-16 -48 0
-9 -49 0
-10 -50 0
-11 -51 0
-12 -52 0
-13 -53 0
-14 -54 0
-15 -55 0
-16 -56 0
-9 -57 0
-10 -58 0
-11 -59 0
-12 -60 0
-13 -61 0
-14 -62 0
-15 -63 0
-16 -64 0
-17 -25 0
-18 -26 0
-19 -27 0
-20 -28 0
-21 -29 0
-22 -30 0
-23 -31 0
-24 -32 0
-17 -33 0
-18 -34 0
-19 -35 0
-20 -36 0
-21 -37 0
-22 -38 0
-23 -39 0
-24 -40 0
-17 -41 0
-18 -42 0
-19 -43 0
-20 -44 0
-21 -45 0
-22 -46 0
-23 -47 0
-24 -48 0
-17 -49 0
-18 -50 0
-19 -51 0
-20 -52 0
-21 -53 0
-22 -54 0
-23 -55 0
-24 -56 0
-17 -57 0
-18 -58 0
-19 -59 0
-20 -60 0
-21 -61 0
-22 -62 0
-23 -63 0
-24 -64 0
-25 -33 0
-26 -34 0
-27 -35 0
-28 -36 0
-29 -37 0
-30 -38 0
-31 -39 0
-32 -40 0
-25 -41 0
-26 -42 0
-27 -43 0
-28 -44 0
-29 -45 0
-30 -46 0
-31 -47 0
-32 -48 0
-25 -49 0
-26 -50 0
-27 -51 0
-28 -52 0
-29 -53 0
-30 -54 0
-31 -55 0
-32 -56 0
-25 -57 0
-26 -58 0
-27 -59 0
-28 -60 0
-29 -61 0
-30 -62 0
-31 -63 0
-32 -64 0
-33 -41 0
-34 -42 0
-35 -43 0
-36 -44 0
-37 -45 0
-38 -46 0
-39 -47 0
-40 -48 0
-33 -49 0
-34 -50 0
-35 -51 0
-36 -52 0
-37 -53 0
-38 -54 0
-39 -55 0
-40 -56 0
-33 -57 0
-34 -58 0
-35 -59 0
-36 -60 0
-37 -61 0
-38 -62 0
-39 -63 0
-40 -64 0
-41 -49 0
-42 -50 0
-43 -51 0
-44 -52 0
-45 -53 0
-46 -54 0
-47 -55 0
-48 -56 0
-41 -57 0
-42 -58 0
-43 -59 0
-44 -60 0
-45 -61 0
-46 -62 0
-47 -63 0
-48 -64 0
-49 -57 0
-50 -58 0
-51 -59 0
-52 -60 0
-53 -61 0
-54 -62 0
-55 -63 0
-56 -64 0
-65 -72 0
-66 -73 0
-67 -74 0
-68 -75 0
-69 -76 0
-70 -77 0
-71 -78 0
-65 -79 0
-66 -80 0
-67 -81 0
-68 -82 0
-69 -83 0
-70 -84 0
-71 -85 0
-65 -86 0
-66 -87 0
-67 -88 0
-68 -89 0
-69 -90 0
-70 -91 0
-71 -92 0
-65 -93 0
-66 -94 0
-67 -95 0
-68 -96 0
-69 -97 0
-70 -98 0
-71 -99 0
-65 -100 0
-66 -101 0
-67 -102 0
-68 -103 0
-69 -104 0
-70 -105 0
-71 -106 0
-65 -107 0
-66 -108 0
-67 -109 0
-68 -110 0
-69 -111 0
-70 -112 0
-71 -113 0
-72 -79 0
-73 -80 0
-74 -81 0
-75 -82 0
-76 -83 0
-77 -84 0
-78 -85 0
-72 -86 0
-73 -87 0
-74 -88 0
-75 -89 0
-76 -90 0
-77 -91 0
-78 -92 0
-72 -93 0
-73 -94 0
-74 -95 0
-75 -96 0
-76 -97 0
-77 -98 0
-78 -99 0
-72 -100 0
-73 -101 0
-74 -102 0
-75 -103 0
-76 -104 0
-77 -105 0
-78 -106 0
-72 -107 0
-73 -108 0
-74 -109 0
-75 -110 0
-76 -111 0
-77 -112 0
-78 -113 0
-79 -86 0
-80 -87 0
-81 -88 0
-82 -89 0
-83 -90 0
-84 -91 0
-85 -92 0
-79 -93 0
-80 -94 0
-81 -95 0
-82 -96 0
-83 -97 0
-84 -98 0
-85 -99 0
-79 -100 0
-80 -101 0
-81 -102 0
-82 -103 0
-83 -104 0
-84 -105 0
-85 -106 0
-79 -107 0
-80 -108 0
-81 -109 0
-82 -110 0
-83 -111 0
-84 -112 0
-85 -113 0
-86 -93 0
-87 -94 0
-88 -95 0
-89 -96 0
-90 -97 0
-91 -98 0
-92 -99 0
-86 -100 0
-87 -101 0
-88 -102 0
-89 -103 0
-90 -104 0
-91 -105 0
-92 -106 0
-86 -107 0
-87 -108 0
-88 -109 0
-89 -110 0
-90 -111 0
-91 -112 0
-92 -113 0
-93 -100 0
-94 -101 0
-95 -102 0
-96 -103 0
-97 -104 0
-98 -105 0
-99 -106 0
-93 -107 0
-94 -108 0
-95 -109 0
-96 -110 0
-97 -111 0
-98 -112 0
-99 -113 0
-100 -107 0
-101 -108 0
-102 -109 0
-103 -110 0
-104 -111 0
-105 -112 0
-106 -113 0
7 -42 65 0
7 -43 66 0
7 -44 67 0
7 -45 68 0
7 -46 69 0
7 -47 70 0
7 -48 71 0
6 -41 65 0
6 -43 65 0
6 -44 66 0
6 -45 67 0
6 -46 68 0
6 -47 69 0
6 -48 70 0
5 -41 66 0
5 -42 65 0
5 -44 65 0
5 -45 66 0
5 -46 67 0
5 -47 68 0
5 -48 69 0
4 -41 67 0
4 -42 66 0
4 -43 65 0
4 -45 65 0
4 -46 66 0
4 -47 67 0
4 -48 68 0
3 -41 68 0
3 -42 67 0
3 -43 66 0
3 -44 65 0
3 -46 65 0
3 -47 66 0
3 -48 67 0
2 -41 69 0
2 -42 68 0
2 -43 67 0
2 -44 66 0
2 -45 65 0
2 -47 65 0
2 -48 66 0
1 -41 70 0
1 -42 69 0
1 -43 68 0
1 -44 67 0
1 -45 66 0
1 -46 65 0
1 -48 65 0
0 -41 71 0
0 -42 70 0
0 -43 69 0
0 -44 68 0
0 -45 67 0
0 -46 66 0
0 -47 65 0
7 -50 72 0
7 -51 73 0
7 -52 74 0
7 -53 75 0
7 -54 76 0
7 -55 77 0
7 -56 78 0
6 -49 72 0
6 -51 72 0
6 -52 73 0
6 -53 74 0
6 -54 75 0
6 -55 76 0
6 -56 77 0
5 -49 73 0
5 -50 72 0
5 -52 72 0
5 -53 73 0
5 -54 74 0
5 -55 75 0
5 -56 76 0
4 -49 74 0
4 -50 73 0
4 -51 72 0
4 -53 72 0
4 -54 73 0
4 -55 74 0
4 -56 75 0
3 -49 75 0
3 -50 74 0
3 -51 73 0
3 -52 72 0
3 -54 72 0
3 -55 73 0
3 -56 74 0
2 -49 76 0
2 -50 75 0
2 -51 74 0
2 -52 73 0
2 -53 72 0
2 -55 72 0
2 -56 73 0
1 -49 77 0
1 -50 76 0
1 -51 75 0
1 -52 74 0
1 -53 73 0
1 -54 72 0
1 -56 72 0
0 -49 78 0
0 -50 77 0
0 -51 76 0
0 -52 75 0
0 -53 74 0
0 -54 73 0
0 -55 72 0
-1 -34 79 0
-1 -35 80 0
-1 -36 81 0
-1 -37 82 0
-1 -38 83 0
-1 -39 84 0
-1 -40 85 0
-2 -33 79 0
-2 -35 79 0
-2 -36 80 0
-2 -37 81 0
-2 -38 82 0
-2 -39 83 0
-2 -40 84 0
-3 -33 80 0
-3 -34 79 0
-3 -36 79 0
-3 -37 80 0
-3 -38 81 0
-3 -39 82 0
-3 -40 83 0
-4 -33 81 0
-4 -34 80 0
-4 -35 79 0
-4 -37 79 0
-4 -38 80 0
-4 -39 81 0
-4 -40 82 0
-5 -33 82 0
-5 -34 81 0
-5 -35 80 0
-5 -36 79 0
-5 -38 79 0
-5 -39 80 0
-5 -40 81 0
-6 -33 83 0
-6 -34 82 0
-6 -35 81 0
-6 -36 80 0
-6 -37 79 0
-6 -39 79 0
-6 -40 80 0
-7 -33 84 0
-7 -34 83 0
-7 -35 82 0
-7 -36 81 0
-7 -37 80 0
-7 -38 79 0
-7 -40 79 0
-8 -33 85 0
-8 -34 84 0
-8 -35 83 0
-8 -36 82 0
-8 -37 81 0
-8 -38 80 0
-8 -39 79 0
-9 -26 86 0
-9 -27 87 0
-9 -28 88 0
-9 -29 89 0
-9 -30 90 0
-9 -31 91 0
-9 -32 92 0
-10 -25 86 0
-10 -27 86 0
-10 -28 87 0
-10 -29 88 0
-10 -30 89 0
-10 -31 90 0
-10 -32 91 0
-11 -25 87 0
-11 -26 86 0
-11 -28 86 0
-11 -29 87 0
-11 -30 88 0
-11 -31 89 0
-11 -32 90 0
-12 -25 88 0
-12 -26 87 0
-12 -27 86 0
-12 -29 86 0
-12 -30 87 0
-12 -31 88 0
-12 -32 89 0
-13 -25 89 0
-13 -26 88 0
-13 -27 87 0
-13 -28 86 0
-13 -30 86 0
-13 -31 87 0
-13 -32 88 0
-14 -25 90 0
-14 -26 89 0
-14 -27 88 0
-14 -28 87 0
-14 -29 86 0
-14 -31 86 0
-14 -32 87 0
-15 -25 91 0
-15 -26 90 0
-15 -27 89 0
-15 -28 88 0
-15 -29 87 0
-15 -30 86 0
-15 -32 86 0
-16 -25 92 0
-16 -26 91 0
-16 -27 90 0
-16 -28 89 0
-16 -29 88 0
-16 -30 87 0
-16 -31 86 0
-17 -26 93 0
-17 -27 94 0
-17 -28 95 0
-17 -29 96 0
-17 -30 97 0
-17 -31 98 0
-17 -32 99 0
-18 -25 93 0
-18 -27 93 0
-18 -28 94 0
-18 -29 95 0
-18 -30 96 0
-18 -31 97 0
-18 -32 98 0
-19 -25 94 0
-19 -26 93 0
-19 -28 93 0
-19 -29 94 0
-19 -30 95 0
-19 -31 96 0
-19 -32 97 0
-20 -25 95 0
-20 -26 94 0
-20 -27 93 0
-20 -29 93 0
-20 -30 94 0
-20 -31 95 0
-20 -32 96 0
-21 -25 96 0
-21 -26 95 0
-21 -27 94 0
-21 -28 93 0
-21 -30 93 0
-21 -31 94 0
-21 -32 95 0
-22 -25 97 0
-22 -26 96 0
-22 -27 95 0
-22 -28 94 0
-22 -29 93 0
-22 -31 93 0
-22 -32 94 0
-23 -25 98 0
-23 -26 97 0
-23 -27 96 0
-23 -28 95 0
-23 -29 94 0
-23 -30 93 0
-23 -32 93 0
-24 -25 99 0
-24 -26 98 0
-24 -27 97 0
-24 -28 96 0
-24 -29 95 0
-24 -30 94 0
-24 -31 93 0
-25 -50 100 0
-25 -51 101 0
-25 -52 102 0
-25 -53 103 0
-25 -54 104 0
-25 -55 105 0
-25 -56 106 0
-26 -49 100 0
-26 -51 100 0
-26 -52 101 0
-26 -53 102 0
-26 -54 103 0
-26 -55 104 0
-26 -56 105 0
-27 -49 101 0
-27 -50 100 0
-27 -52 100 0
-27 -53 101 0
-27 -54 102 0
-27 -55 103 0
-27 -56 104 0
-28 -49 102 0
-28 -50 101 0
-28 -51 100 0
-28 -53 100 0
-28 -54 101 0
-28 -55 102 0
-28 -56 103 0
-29 -49 103 0
-29 -50 102 0
-29 -51 101 0
-29 -52 100 0
-29 -54 100 0
-29 -55 101 0
-29 -56 102 0
-30 -49 104 0
-30 -50 103 0
-30 -51 102 0
-30 -52 101 0
-30 -53 100 0
-30 -55 100 0
-30 -56 101 0
-31 -49 105 0
-31 -50 104 0
-31 -51 103 0
-31 -52 102 0
-31 -53 101 0
-31 -54 100 0
-31 -56 100 0
-32 -49 106 0
-32 -50 105 0
-32 -51 104 0
-32 -52 103 0
-32 -53 102 0
-32 -54 101 0
-32 -55 100 0
-33 -42 107 0
-33 -43 108 0
-33 -44 109 0
-33 -45 110 0
-33 -46 111 0
-33 -47 112 0
-33 -48 113 0
-34 -41 107 0
-34 -43 107 0
-34 -44 108 0
-34 -45 109 0
-34 -46 110 0
-34 -47 111 0
-34 -48 112 0
-35 -41 108 0
-35 -42 107 0
-35 -44 107 0
-35 -45 108 0
-35 -46 109 0
-35 -47 110 0
-35 -48 111 0
-36 -41 109 0
-36 -42 108 0
-36 -43 107 0
-36 -45 107 0
-36 -46 108 0
-36 -47 109 0
-36 -48 110 0
-37 -41 110 0
-37 -42 109 0
-37 -43 108 0
-37 -44 107 0
-37 -46 107 0
-37 -47 108 0
-37 -48 109 0
-38 -41 111 0
-38 -42 110 0
-38 -43 109 0
-38 -44 108 0
-38 -45 107 0
-38 -47 107 0
-38 -48 108 0
-39 -41 112 0
-39 -42 111 0
-39 -43 110 0
-39 -44 109 0
-39 -45 108 0
-39 -46 107 0
-39 -48 107 0
-40 -41 113 0
-40 -42 112 0
-40 -43 111 0
-40 -44 110 0
-40 -45 109 0
-40 -46 108 0
-40 -47 107 0
